c *********************************
c * Circuit generated by BenCGen
c *
c * CarryLookaheadBlock_39_39_39_InOutT
c *
c * Ports with 1 gate(s): 2
c * Ports with 2 gate(s): 167
c * Ports with 3 gate(s): 39
c * Ports with 4 gate(s): 29
c * Ports with 5 gate(s): 18
c * Total gates: 255
c *********************************
p cnf 333 992
1 120 0
-1 -120 0
1 -119 0
120 -119 0
-1 -120 119 0
1 40 -121 0
-1 40 121 0
1 -40 121 0
-1 -40 -121 0
1 -160 0
40 -160 0
-1 -40 160 0
2 41 -122 0
-2 41 122 0
2 -41 122 0
-2 -41 -122 0
2 -161 0
41 -161 0
-2 -41 161 0
3 42 -123 0
-3 42 123 0
3 -42 123 0
-3 -42 -123 0
3 -162 0
42 -162 0
-3 -42 162 0
4 43 -124 0
-4 43 124 0
4 -43 124 0
-4 -43 -124 0
4 -163 0
43 -163 0
-4 -43 163 0
5 44 -125 0
-5 44 125 0
5 -44 125 0
-5 -44 -125 0
5 -164 0
44 -164 0
-5 -44 164 0
6 45 -126 0
-6 45 126 0
6 -45 126 0
-6 -45 -126 0
6 -165 0
45 -165 0
-6 -45 165 0
7 46 -127 0
-7 46 127 0
7 -46 127 0
-7 -46 -127 0
7 -166 0
46 -166 0
-7 -46 166 0
8 47 -128 0
-8 47 128 0
8 -47 128 0
-8 -47 -128 0
8 -167 0
47 -167 0
-8 -47 167 0
9 48 -129 0
-9 48 129 0
9 -48 129 0
-9 -48 -129 0
9 -168 0
48 -168 0
-9 -48 168 0
10 49 -130 0
-10 49 130 0
10 -49 130 0
-10 -49 -130 0
10 -169 0
49 -169 0
-10 -49 169 0
11 50 -131 0
-11 50 131 0
11 -50 131 0
-11 -50 -131 0
11 -170 0
50 -170 0
-11 -50 170 0
12 51 -132 0
-12 51 132 0
12 -51 132 0
-12 -51 -132 0
12 -171 0
51 -171 0
-12 -51 171 0
13 52 -133 0
-13 52 133 0
13 -52 133 0
-13 -52 -133 0
13 -172 0
52 -172 0
-13 -52 172 0
14 53 -134 0
-14 53 134 0
14 -53 134 0
-14 -53 -134 0
14 -173 0
53 -173 0
-14 -53 173 0
15 54 -135 0
-15 54 135 0
15 -54 135 0
-15 -54 -135 0
15 -174 0
54 -174 0
-15 -54 174 0
16 55 -136 0
-16 55 136 0
16 -55 136 0
-16 -55 -136 0
16 -175 0
55 -175 0
-16 -55 175 0
17 56 -137 0
-17 56 137 0
17 -56 137 0
-17 -56 -137 0
17 -176 0
56 -176 0
-17 -56 176 0
18 57 -138 0
-18 57 138 0
18 -57 138 0
-18 -57 -138 0
18 -177 0
57 -177 0
-18 -57 177 0
19 58 -139 0
-19 58 139 0
19 -58 139 0
-19 -58 -139 0
19 -178 0
58 -178 0
-19 -58 178 0
20 59 -140 0
-20 59 140 0
20 -59 140 0
-20 -59 -140 0
20 -179 0
59 -179 0
-20 -59 179 0
21 60 -141 0
-21 60 141 0
21 -60 141 0
-21 -60 -141 0
21 -180 0
60 -180 0
-21 -60 180 0
22 61 -142 0
-22 61 142 0
22 -61 142 0
-22 -61 -142 0
22 -181 0
61 -181 0
-22 -61 181 0
23 62 -143 0
-23 62 143 0
23 -62 143 0
-23 -62 -143 0
23 -182 0
62 -182 0
-23 -62 182 0
24 63 -144 0
-24 63 144 0
24 -63 144 0
-24 -63 -144 0
24 -183 0
63 -183 0
-24 -63 183 0
25 64 -145 0
-25 64 145 0
25 -64 145 0
-25 -64 -145 0
25 -184 0
64 -184 0
-25 -64 184 0
26 65 -146 0
-26 65 146 0
26 -65 146 0
-26 -65 -146 0
26 -185 0
65 -185 0
-26 -65 185 0
27 66 -147 0
-27 66 147 0
27 -66 147 0
-27 -66 -147 0
27 -186 0
66 -186 0
-27 -66 186 0
28 67 -148 0
-28 67 148 0
28 -67 148 0
-28 -67 -148 0
28 -187 0
67 -187 0
-28 -67 187 0
29 68 -149 0
-29 68 149 0
29 -68 149 0
-29 -68 -149 0
29 -188 0
68 -188 0
-29 -68 188 0
30 69 -150 0
-30 69 150 0
30 -69 150 0
-30 -69 -150 0
30 -189 0
69 -189 0
-30 -69 189 0
31 70 -151 0
-31 70 151 0
31 -70 151 0
-31 -70 -151 0
31 -190 0
70 -190 0
-31 -70 190 0
32 71 -152 0
-32 71 152 0
32 -71 152 0
-32 -71 -152 0
32 -191 0
71 -191 0
-32 -71 191 0
33 72 -153 0
-33 72 153 0
33 -72 153 0
-33 -72 -153 0
33 -192 0
72 -192 0
-33 -72 192 0
34 73 -154 0
-34 73 154 0
34 -73 154 0
-34 -73 -154 0
34 -193 0
73 -193 0
-34 -73 193 0
35 74 -155 0
-35 74 155 0
35 -74 155 0
-35 -74 -155 0
35 -194 0
74 -194 0
-35 -74 194 0
36 75 -156 0
-36 75 156 0
36 -75 156 0
-36 -75 -156 0
36 -195 0
75 -195 0
-36 -75 195 0
37 76 -157 0
-37 76 157 0
37 -76 157 0
-37 -76 -157 0
37 -196 0
76 -196 0
-37 -76 196 0
38 77 -158 0
-38 77 158 0
38 -77 158 0
-38 -77 -158 0
38 -197 0
77 -197 0
-38 -77 197 0
39 78 -159 0
-39 78 159 0
39 -78 159 0
-39 -78 -159 0
39 -198 0
78 -198 0
-39 -78 198 0
119 -238 0
121 -238 0
-119 -121 238 0
119 -239 0
121 -239 0
122 -239 0
-119 -121 -122 239 0
160 -240 0
122 -240 0
-160 -122 240 0
119 -241 0
121 -241 0
122 -241 0
123 -241 0
-119 -121 -122 -123 241 0
160 -242 0
122 -242 0
123 -242 0
-160 -122 -123 242 0
161 -243 0
123 -243 0
-161 -123 243 0
119 -244 0
121 -244 0
122 -244 0
123 -244 0
124 -244 0
-119 -121 -122 -123 -124 244 0
160 -245 0
122 -245 0
123 -245 0
124 -245 0
-160 -122 -123 -124 245 0
161 -246 0
123 -246 0
124 -246 0
-161 -123 -124 246 0
162 -247 0
124 -247 0
-162 -124 247 0
-160 199 0
-238 199 0
160 238 -199 0
-161 200 0
-239 200 0
-240 200 0
161 239 240 -200 0
-162 201 0
-241 201 0
-242 201 0
-243 201 0
162 241 242 243 -201 0
-163 202 0
-244 202 0
-245 202 0
-246 202 0
-247 202 0
163 244 245 246 247 -202 0
202 -248 0
125 -248 0
-202 -125 248 0
202 -249 0
125 -249 0
126 -249 0
-202 -125 -126 249 0
164 -250 0
126 -250 0
-164 -126 250 0
202 -251 0
125 -251 0
126 -251 0
127 -251 0
-202 -125 -126 -127 251 0
164 -252 0
126 -252 0
127 -252 0
-164 -126 -127 252 0
165 -253 0
127 -253 0
-165 -127 253 0
202 -254 0
125 -254 0
126 -254 0
127 -254 0
128 -254 0
-202 -125 -126 -127 -128 254 0
164 -255 0
126 -255 0
127 -255 0
128 -255 0
-164 -126 -127 -128 255 0
165 -256 0
127 -256 0
128 -256 0
-165 -127 -128 256 0
166 -257 0
128 -257 0
-166 -128 257 0
-164 203 0
-248 203 0
164 248 -203 0
-165 204 0
-249 204 0
-250 204 0
165 249 250 -204 0
-166 205 0
-251 205 0
-252 205 0
-253 205 0
166 251 252 253 -205 0
-167 206 0
-254 206 0
-255 206 0
-256 206 0
-257 206 0
167 254 255 256 257 -206 0
206 -258 0
129 -258 0
-206 -129 258 0
206 -259 0
129 -259 0
130 -259 0
-206 -129 -130 259 0
168 -260 0
130 -260 0
-168 -130 260 0
206 -261 0
129 -261 0
130 -261 0
131 -261 0
-206 -129 -130 -131 261 0
168 -262 0
130 -262 0
131 -262 0
-168 -130 -131 262 0
169 -263 0
131 -263 0
-169 -131 263 0
206 -264 0
129 -264 0
130 -264 0
131 -264 0
132 -264 0
-206 -129 -130 -131 -132 264 0
168 -265 0
130 -265 0
131 -265 0
132 -265 0
-168 -130 -131 -132 265 0
169 -266 0
131 -266 0
132 -266 0
-169 -131 -132 266 0
170 -267 0
132 -267 0
-170 -132 267 0
-168 207 0
-258 207 0
168 258 -207 0
-169 208 0
-259 208 0
-260 208 0
169 259 260 -208 0
-170 209 0
-261 209 0
-262 209 0
-263 209 0
170 261 262 263 -209 0
-171 210 0
-264 210 0
-265 210 0
-266 210 0
-267 210 0
171 264 265 266 267 -210 0
210 -268 0
133 -268 0
-210 -133 268 0
210 -269 0
133 -269 0
134 -269 0
-210 -133 -134 269 0
172 -270 0
134 -270 0
-172 -134 270 0
210 -271 0
133 -271 0
134 -271 0
135 -271 0
-210 -133 -134 -135 271 0
172 -272 0
134 -272 0
135 -272 0
-172 -134 -135 272 0
173 -273 0
135 -273 0
-173 -135 273 0
210 -274 0
133 -274 0
134 -274 0
135 -274 0
136 -274 0
-210 -133 -134 -135 -136 274 0
172 -275 0
134 -275 0
135 -275 0
136 -275 0
-172 -134 -135 -136 275 0
173 -276 0
135 -276 0
136 -276 0
-173 -135 -136 276 0
174 -277 0
136 -277 0
-174 -136 277 0
-172 211 0
-268 211 0
172 268 -211 0
-173 212 0
-269 212 0
-270 212 0
173 269 270 -212 0
-174 213 0
-271 213 0
-272 213 0
-273 213 0
174 271 272 273 -213 0
-175 214 0
-274 214 0
-275 214 0
-276 214 0
-277 214 0
175 274 275 276 277 -214 0
214 -278 0
137 -278 0
-214 -137 278 0
214 -279 0
137 -279 0
138 -279 0
-214 -137 -138 279 0
176 -280 0
138 -280 0
-176 -138 280 0
214 -281 0
137 -281 0
138 -281 0
139 -281 0
-214 -137 -138 -139 281 0
176 -282 0
138 -282 0
139 -282 0
-176 -138 -139 282 0
177 -283 0
139 -283 0
-177 -139 283 0
214 -284 0
137 -284 0
138 -284 0
139 -284 0
140 -284 0
-214 -137 -138 -139 -140 284 0
176 -285 0
138 -285 0
139 -285 0
140 -285 0
-176 -138 -139 -140 285 0
177 -286 0
139 -286 0
140 -286 0
-177 -139 -140 286 0
178 -287 0
140 -287 0
-178 -140 287 0
-176 215 0
-278 215 0
176 278 -215 0
-177 216 0
-279 216 0
-280 216 0
177 279 280 -216 0
-178 217 0
-281 217 0
-282 217 0
-283 217 0
178 281 282 283 -217 0
-179 218 0
-284 218 0
-285 218 0
-286 218 0
-287 218 0
179 284 285 286 287 -218 0
218 -288 0
141 -288 0
-218 -141 288 0
218 -289 0
141 -289 0
142 -289 0
-218 -141 -142 289 0
180 -290 0
142 -290 0
-180 -142 290 0
218 -291 0
141 -291 0
142 -291 0
143 -291 0
-218 -141 -142 -143 291 0
180 -292 0
142 -292 0
143 -292 0
-180 -142 -143 292 0
181 -293 0
143 -293 0
-181 -143 293 0
218 -294 0
141 -294 0
142 -294 0
143 -294 0
144 -294 0
-218 -141 -142 -143 -144 294 0
180 -295 0
142 -295 0
143 -295 0
144 -295 0
-180 -142 -143 -144 295 0
181 -296 0
143 -296 0
144 -296 0
-181 -143 -144 296 0
182 -297 0
144 -297 0
-182 -144 297 0
-180 219 0
-288 219 0
180 288 -219 0
-181 220 0
-289 220 0
-290 220 0
181 289 290 -220 0
-182 221 0
-291 221 0
-292 221 0
-293 221 0
182 291 292 293 -221 0
-183 222 0
-294 222 0
-295 222 0
-296 222 0
-297 222 0
183 294 295 296 297 -222 0
222 -298 0
145 -298 0
-222 -145 298 0
222 -299 0
145 -299 0
146 -299 0
-222 -145 -146 299 0
184 -300 0
146 -300 0
-184 -146 300 0
222 -301 0
145 -301 0
146 -301 0
147 -301 0
-222 -145 -146 -147 301 0
184 -302 0
146 -302 0
147 -302 0
-184 -146 -147 302 0
185 -303 0
147 -303 0
-185 -147 303 0
222 -304 0
145 -304 0
146 -304 0
147 -304 0
148 -304 0
-222 -145 -146 -147 -148 304 0
184 -305 0
146 -305 0
147 -305 0
148 -305 0
-184 -146 -147 -148 305 0
185 -306 0
147 -306 0
148 -306 0
-185 -147 -148 306 0
186 -307 0
148 -307 0
-186 -148 307 0
-184 223 0
-298 223 0
184 298 -223 0
-185 224 0
-299 224 0
-300 224 0
185 299 300 -224 0
-186 225 0
-301 225 0
-302 225 0
-303 225 0
186 301 302 303 -225 0
-187 226 0
-304 226 0
-305 226 0
-306 226 0
-307 226 0
187 304 305 306 307 -226 0
226 -308 0
149 -308 0
-226 -149 308 0
226 -309 0
149 -309 0
150 -309 0
-226 -149 -150 309 0
188 -310 0
150 -310 0
-188 -150 310 0
226 -311 0
149 -311 0
150 -311 0
151 -311 0
-226 -149 -150 -151 311 0
188 -312 0
150 -312 0
151 -312 0
-188 -150 -151 312 0
189 -313 0
151 -313 0
-189 -151 313 0
226 -314 0
149 -314 0
150 -314 0
151 -314 0
152 -314 0
-226 -149 -150 -151 -152 314 0
188 -315 0
150 -315 0
151 -315 0
152 -315 0
-188 -150 -151 -152 315 0
189 -316 0
151 -316 0
152 -316 0
-189 -151 -152 316 0
190 -317 0
152 -317 0
-190 -152 317 0
-188 227 0
-308 227 0
188 308 -227 0
-189 228 0
-309 228 0
-310 228 0
189 309 310 -228 0
-190 229 0
-311 229 0
-312 229 0
-313 229 0
190 311 312 313 -229 0
-191 230 0
-314 230 0
-315 230 0
-316 230 0
-317 230 0
191 314 315 316 317 -230 0
230 -318 0
153 -318 0
-230 -153 318 0
230 -319 0
153 -319 0
154 -319 0
-230 -153 -154 319 0
192 -320 0
154 -320 0
-192 -154 320 0
230 -321 0
153 -321 0
154 -321 0
155 -321 0
-230 -153 -154 -155 321 0
192 -322 0
154 -322 0
155 -322 0
-192 -154 -155 322 0
193 -323 0
155 -323 0
-193 -155 323 0
230 -324 0
153 -324 0
154 -324 0
155 -324 0
156 -324 0
-230 -153 -154 -155 -156 324 0
192 -325 0
154 -325 0
155 -325 0
156 -325 0
-192 -154 -155 -156 325 0
193 -326 0
155 -326 0
156 -326 0
-193 -155 -156 326 0
194 -327 0
156 -327 0
-194 -156 327 0
-192 231 0
-318 231 0
192 318 -231 0
-193 232 0
-319 232 0
-320 232 0
193 319 320 -232 0
-194 233 0
-321 233 0
-322 233 0
-323 233 0
194 321 322 323 -233 0
-195 234 0
-324 234 0
-325 234 0
-326 234 0
-327 234 0
195 324 325 326 327 -234 0
234 -328 0
157 -328 0
-234 -157 328 0
234 -329 0
157 -329 0
158 -329 0
-234 -157 -158 329 0
196 -330 0
158 -330 0
-196 -158 330 0
234 -331 0
157 -331 0
158 -331 0
159 -331 0
-234 -157 -158 -159 331 0
196 -332 0
158 -332 0
159 -332 0
-196 -158 -159 332 0
197 -333 0
159 -333 0
-197 -159 333 0
-196 235 0
-328 235 0
196 328 -235 0
-197 236 0
-329 236 0
-330 236 0
197 329 330 -236 0
-198 237 0
-331 237 0
-332 237 0
-333 237 0
198 331 332 333 -237 0
121 119 -79 0
-121 119 79 0
121 -119 79 0
-121 -119 -79 0
122 199 -80 0
-122 199 80 0
122 -199 80 0
-122 -199 -80 0
123 200 -81 0
-123 200 81 0
123 -200 81 0
-123 -200 -81 0
124 201 -82 0
-124 201 82 0
124 -201 82 0
-124 -201 -82 0
125 202 -83 0
-125 202 83 0
125 -202 83 0
-125 -202 -83 0
126 203 -84 0
-126 203 84 0
126 -203 84 0
-126 -203 -84 0
127 204 -85 0
-127 204 85 0
127 -204 85 0
-127 -204 -85 0
128 205 -86 0
-128 205 86 0
128 -205 86 0
-128 -205 -86 0
129 206 -87 0
-129 206 87 0
129 -206 87 0
-129 -206 -87 0
130 207 -88 0
-130 207 88 0
130 -207 88 0
-130 -207 -88 0
131 208 -89 0
-131 208 89 0
131 -208 89 0
-131 -208 -89 0
132 209 -90 0
-132 209 90 0
132 -209 90 0
-132 -209 -90 0
133 210 -91 0
-133 210 91 0
133 -210 91 0
-133 -210 -91 0
134 211 -92 0
-134 211 92 0
134 -211 92 0
-134 -211 -92 0
135 212 -93 0
-135 212 93 0
135 -212 93 0
-135 -212 -93 0
136 213 -94 0
-136 213 94 0
136 -213 94 0
-136 -213 -94 0
137 214 -95 0
-137 214 95 0
137 -214 95 0
-137 -214 -95 0
138 215 -96 0
-138 215 96 0
138 -215 96 0
-138 -215 -96 0
139 216 -97 0
-139 216 97 0
139 -216 97 0
-139 -216 -97 0
140 217 -98 0
-140 217 98 0
140 -217 98 0
-140 -217 -98 0
141 218 -99 0
-141 218 99 0
141 -218 99 0
-141 -218 -99 0
142 219 -100 0
-142 219 100 0
142 -219 100 0
-142 -219 -100 0
143 220 -101 0
-143 220 101 0
143 -220 101 0
-143 -220 -101 0
144 221 -102 0
-144 221 102 0
144 -221 102 0
-144 -221 -102 0
145 222 -103 0
-145 222 103 0
145 -222 103 0
-145 -222 -103 0
146 223 -104 0
-146 223 104 0
146 -223 104 0
-146 -223 -104 0
147 224 -105 0
-147 224 105 0
147 -224 105 0
-147 -224 -105 0
148 225 -106 0
-148 225 106 0
148 -225 106 0
-148 -225 -106 0
149 226 -107 0
-149 226 107 0
149 -226 107 0
-149 -226 -107 0
150 227 -108 0
-150 227 108 0
150 -227 108 0
-150 -227 -108 0
151 228 -109 0
-151 228 109 0
151 -228 109 0
-151 -228 -109 0
152 229 -110 0
-152 229 110 0
152 -229 110 0
-152 -229 -110 0
153 230 -111 0
-153 230 111 0
153 -230 111 0
-153 -230 -111 0
154 231 -112 0
-154 231 112 0
154 -231 112 0
-154 -231 -112 0
155 232 -113 0
-155 232 113 0
155 -232 113 0
-155 -232 -113 0
156 233 -114 0
-156 233 114 0
156 -233 114 0
-156 -233 -114 0
157 234 -115 0
-157 234 115 0
157 -234 115 0
-157 -234 -115 0
158 235 -116 0
-158 235 116 0
158 -235 116 0
-158 -235 -116 0
159 236 -117 0
-159 236 117 0
159 -236 117 0
-159 -236 -117 0
237 -118 0
-237 118 0
